Route 1: 0 100 14 48 51 82 90 46 0
Route 2: 0 17 85 88 93 60 39 3 67 45 0
Route 3: 0 75 15 6 12 95 64 58 0
Route 4: 0 89 22 63 92 98 32 40 81 0
Route 5: 0 66 71 37 19 23 44 0
Route 6: 0 69 96 97 21 80 70 43 0
Route 7: 0 91 79 59 9 83 72 42 74 30 0
Route 8: 0 24 18 29 84 61 53 13 2 57 34 0
Route 9: 0 73 27 62 5 55 54 36 76 56 25 0
Route 10: 0 35 7 86 10 65 38 47 78 0
Route 11: 0 31 50 11 99 8 41 94 0
Route 12: 0 33 87 4 20 49 52 28 1 0
Route 13: 0 68 16 26 77 0
